solution status: time limit reached
objective value:                         171004.52438
y#1                                                 1 	(obj:5700)
y#2                                                 1 	(obj:5700)
y#5                                                 1 	(obj:5700)
y#7                                                 1 	(obj:5700)
y#9                                                 1 	(obj:5700)
y#10                                                1 	(obj:5700)
y#11                                                1 	(obj:5700)
y#13                                                1 	(obj:5700)
y#14                                                1 	(obj:5700)
y#17                                                1 	(obj:5700)
y#18                                                1 	(obj:5700)
y#20                                                1 	(obj:5700)
y#21                                                1 	(obj:5700)
y#22                                                1 	(obj:5700)
y#25                                                1 	(obj:5700)
y#26                                                1 	(obj:5700)
y#27                                                1 	(obj:5700)
y#32                                                1 	(obj:5700)
y#33                                                1 	(obj:5700)
y#34                                                1 	(obj:5700)
y#35                                                1 	(obj:5700)
y#38                                                1 	(obj:5700)
y#39                                                1 	(obj:5700)
y#40                                                1 	(obj:5700)
y#41                                                1 	(obj:5700)
y#42                                                1 	(obj:5700)
y#43                                                1 	(obj:5700)
y#48                                                1 	(obj:5700)
y#50                                                1 	(obj:5700)
y#52                                                1 	(obj:5700)
x#1#41                                              1 	(obj:0.02023)
x#2#5                                               1 	(obj:0.01275)
x#3#39                                              1 	(obj:0.00986)
x#4#7                                               1 	(obj:0.01785)
x#5#50                                              1 	(obj:0.01122)
x#6#21                                              1 	(obj:0.02006)
x#7#42                                              1 	(obj:0.0068)
x#8#35                                              1 	(obj:0.01887)
x#9#11                                              1 	(obj:0.02125)
x#10#33                                             1 	(obj:0.03638)
x#11#1                                              1 	(obj:0.02329)
x#12#5                                              1 	(obj:0.0102)
x#13#21                                             1 	(obj:0.01377)
x#14#27                                             1 	(obj:0.01343)
x#15#33                                             1 	(obj:0.0102)
x#16#17                                             1 	(obj:0.01717)
x#17#35                                             1 	(obj:0.02278)
x#18#22                                             1 	(obj:0.0102)
x#19#42                                             1 	(obj:0.02176)
x#20#35                                             1 	(obj:0.0119)
x#21#11                                             1 	(obj:0.00578)
x#22#7                                              1 	(obj:0.01734)
x#23#2                                              1 	(obj:0.01751)
x#24#48                                             1 	(obj:0.01173)
x#25#26                                             1 	(obj:0.0153)
x#26#52                                             1 	(obj:0.00629)
x#27#10                                             1 	(obj:0.02227)
x#28#39                                             1 	(obj:0.01649)
x#29#50                                             1 	(obj:0.03842)
x#30#13                                             1 	(obj:0.01122)
x#31#42                                             1 	(obj:0.01802)
x#32#50                                             1 	(obj:0.01224)
x#33#42                                             1 	(obj:0.02941)
x#34#27                                             1 	(obj:0.01615)
x#35#18                                             1 	(obj:0.00187)
x#36#2                                              1 	(obj:0.01309)
x#37#9                                              1 	(obj:0.03281)
x#38#21                                             1 	(obj:0.01377)
x#39#2                                              1 	(obj:0.00612)
x#40#48                                             1 	(obj:0.00357)
x#41#32                                             1 	(obj:0.01853)
x#42#11                                             1 	(obj:0.02176)
x#43#42                                             1 	(obj:0.02193)
x#44#21                                             1 	(obj:0.01547)
x#45#1                                              1 	(obj:0.00952)
x#46#34                                             1 	(obj:0.00765)
x#47#48                                             1 	(obj:0.01887)
x#48#26                                             1 	(obj:0.00697)
x#49#22                                             1 	(obj:0.00918)
x#50#18                                             1 	(obj:0.0238)
x#51#48                                             1 	(obj:0.02363)
x#52#48                                             1 	(obj:0.02006)
x#53#27                                             1 	(obj:0.00867)
x#54#5                                              1 	(obj:0.01853)
x#55#22                                             1 	(obj:0.02295)
x#56#1                                              1 	(obj:0.01717)
x#57#22                                             1 	(obj:0.02244)
x#58#13                                             1 	(obj:0.01037)
x#59#38                                             1 	(obj:0.00935)
x#60#50                                             1 	(obj:0.01513)
x#61#13                                             1 	(obj:0.02788)
x#62#22                                             1 	(obj:0.01224)
x#63#40                                             1 	(obj:0.01768)
x#64#39                                             1 	(obj:0.00714)
x#65#33                                             1 	(obj:0.0153)
x#66#14                                             1 	(obj:0.01156)
x#67#7                                              1 	(obj:0.01224)
x#68#13                                             1 	(obj:0.01989)
x#69#35                                             1 	(obj:0.01887)
x#70#13                                             1 	(obj:0.01309)
x#71#1                                              1 	(obj:0.02516)
x#72#39                                             1 	(obj:0.00867)
x#73#52                                             1 	(obj:0.01768)
x#74#40                                             1 	(obj:0.00408)
x#75#18                                             1 	(obj:0.0034)
x#76#27                                             1 	(obj:0.01598)
x#77#20                                             1 	(obj:0.00935)
x#78#11                                             1 	(obj:0.01921)
x#79#2                                              1 	(obj:0.01054)
x#80#14                                             1 	(obj:0.02669)
x#81#52                                             1 	(obj:0.01258)
x#82#41                                             1 	(obj:0.01734)
x#83#21                                             1 	(obj:0.01207)
x#84#40                                             1 	(obj:0.0102)
x#85#50                                             1 	(obj:0.01666)
x#86#9                                              1 	(obj:0.01377)
x#87#38                                             1 	(obj:0.0119)
x#88#32                                             1 	(obj:0.00255)
x#89#43                                             1 	(obj:0.02108)
x#90#40                                             1 	(obj:0.01989)
x#91#52                                             1 	(obj:0.01207)
x#92#39                                             1 	(obj:0.0119)
x#93#26                                             1 	(obj:0.01054)
x#94#32                                             1 	(obj:0.01411)
x#95#40                                             1 	(obj:0.0085)
x#96#26                                             1 	(obj:0.00561)
x#97#7                                              1 	(obj:0.01037)
x#98#34                                             1 	(obj:0.01088)
x#99#27                                             1 	(obj:0.01445)
x#100#1                                             1 	(obj:0.00595)
x#101#35                                            1 	(obj:0.02363)
x#102#7                                             1 	(obj:0.02822)
x#103#21                                            1 	(obj:0.0051)
x#104#11                                            1 	(obj:0.01989)
x#105#42                                            1 	(obj:0.00714)
x#106#50                                            1 	(obj:0.03128)
x#107#33                                            1 	(obj:0.00459)
x#108#5                                             1 	(obj:0.00918)
x#109#33                                            1 	(obj:0.00952)
x#110#34                                            1 	(obj:0.0102)
x#111#43                                            1 	(obj:0.01309)
x#112#10                                            1 	(obj:0.01343)
x#113#17                                            1 	(obj:0.0221)
x#114#14                                            1 	(obj:0.03128)
x#115#9                                             1 	(obj:0.02618)
x#116#1                                             1 	(obj:0.01972)
x#117#18                                            1 	(obj:0.01411)
x#118#34                                            1 	(obj:0.01581)
x#119#21                                            1 	(obj:0.03128)
x#120#9                                             1 	(obj:0.01428)
x#121#32                                            1 	(obj:0.01785)
x#122#17                                            1 	(obj:0.02261)
x#123#38                                            1 	(obj:0.0306)
x#124#25                                            1 	(obj:0.00986)
x#125#27                                            1 	(obj:0.01037)
x#126#52                                            1 	(obj:0.00867)
x#127#35                                            1 	(obj:0.00442)
x#128#11                                            1 	(obj:0.02346)
x#129#50                                            1 	(obj:0.01853)
x#130#35                                            1 	(obj:0.01683)
x#131#10                                            1 	(obj:0.01428)
x#132#13                                            1 	(obj:0.017)
x#133#13                                            1 	(obj:0.0357)
x#134#7                                             1 	(obj:0.02057)
x#135#10                                            1 	(obj:0.02227)
x#136#48                                            1 	(obj:0.0085)
x#137#25                                            1 	(obj:0.00901)
x#138#1                                             1 	(obj:0.01513)
x#139#42                                            1 	(obj:0.01904)
x#140#9                                             1 	(obj:0.01105)
x#141#17                                            1 	(obj:0.00901)
x#142#35                                            1 	(obj:0.03179)
x#143#52                                            1 	(obj:0.01411)
x#144#17                                            1 	(obj:0.00799)
x#145#20                                            1 	(obj:0.01088)
x#146#27                                            1 	(obj:0.01972)
x#147#38                                            1 	(obj:0.01462)
x#148#11                                            1 	(obj:0.00544)
x#149#2                                             1 	(obj:0.01139)
x#150#11                                            1 	(obj:0.01224)
x#151#7                                             1 	(obj:0.0136)
x#152#38                                            1 	(obj:0.0442)
x#153#21                                            1 	(obj:0.0153)
x#154#41                                            1 	(obj:0.01564)
x#155#1                                             1 	(obj:0.02924)
x#156#43                                            1 	(obj:0.00051)
x#157#43                                            1 	(obj:0.00935)
x#158#43                                            1 	(obj:0.01853)
x#159#9                                             1 	(obj:0.00323)
x#160#52                                            1 	(obj:0.01241)
x#161#5                                             1 	(obj:0.01649)
x#162#21                                            1 	(obj:0.02227)
x#163#52                                            1 	(obj:0.01377)
x#164#32                                            1 	(obj:0.0068)
x#165#10                                            1 	(obj:0.0119)
x#166#5                                             1 	(obj:0.01581)
x#167#33                                            1 	(obj:0.01241)
x#168#1                                             1 	(obj:0.01445)
x#169#2                                             1 	(obj:0.0102)
x#170#5                                             1 	(obj:0.01564)
x#171#17                                            1 	(obj:0.01836)
x#172#50                                            1 	(obj:0.01887)
x#173#9                                             1 	(obj:0.00748)
x#174#11                                            1 	(obj:0.01088)
x#175#43                                            1 	(obj:0.01326)
x#176#22                                            1 	(obj:0.01037)
x#177#22                                            1 	(obj:0.01173)
x#178#38                                            1 	(obj:0.02941)
x#179#22                                            1 	(obj:0.01649)
x#180#1                                             1 	(obj:0.0153)
x#181#20                                            1 	(obj:0.00663)
x#182#26                                            1 	(obj:0.02737)
x#183#14                                            1 	(obj:0.00799)
x#184#26                                            1 	(obj:0.017)
x#185#1                                             1 	(obj:0.00204)
x#186#43                                            1 	(obj:0.01683)
x#187#17                                            1 	(obj:0.00884)
x#188#38                                            1 	(obj:0.01054)
x#189#35                                            1 	(obj:0.02516)
x#190#43                                            1 	(obj:0.02176)
x#191#11                                            1 	(obj:0.00663)
x#192#33                                            1 	(obj:0.02669)
x#193#22                                            1 	(obj:0.00918)
x#194#48                                            1 	(obj:0.02669)
x#195#38                                            1 	(obj:0.017)
x#196#25                                            1 	(obj:0.00374)
x#197#39                                            1 	(obj:0.01207)
x#198#7                                             1 	(obj:0.01615)
x#199#9                                             1 	(obj:0.02686)
x#200#25                                            1 	(obj:0.01241)
x#201#52                                            1 	(obj:0.02159)
x#202#50                                            1 	(obj:0.0119)
x#203#25                                            1 	(obj:0.017)
x#204#18                                            1 	(obj:0.00731)
x#205#39                                            1 	(obj:0.01615)
x#206#34                                            1 	(obj:0.00833)
x#207#26                                            1 	(obj:0.0119)
x#208#27                                            1 	(obj:0.01887)
x#209#1                                             1 	(obj:0.0102)
x#210#42                                            1 	(obj:0.00578)
x#211#39                                            1 	(obj:0.017)
x#212#33                                            1 	(obj:0.0153)
x#213#10                                            1 	(obj:0.01343)
x#214#14                                            1 	(obj:0.02193)
x#215#27                                            1 	(obj:0.01717)
x#216#17                                            1 	(obj:0.0085)
x#217#52                                            1 	(obj:0.00731)
x#218#43                                            1 	(obj:0.00986)
x#219#10                                            1 	(obj:0.01207)
x#220#11                                            1 	(obj:0.0187)
x#221#10                                            1 	(obj:0.01241)
x#222#50                                            1 	(obj:0.00085)
x#223#25                                            1 	(obj:0.02057)
x#224#18                                            1 	(obj:0.0102)
x#225#52                                            1 	(obj:0.0153)
x#226#48                                            1 	(obj:0.0051)
x#227#34                                            1 	(obj:0.00374)
x#228#13                                            1 	(obj:0.02737)
x#229#9                                             1 	(obj:0.00884)
x#230#33                                            1 	(obj:0.00952)
x#231#9                                             1 	(obj:0.00425)
x#232#27                                            1 	(obj:0.00901)
x#233#39                                            1 	(obj:0.01224)
x#234#22                                            1 	(obj:0.02516)
x#235#11                                            1 	(obj:0.01394)
x#236#32                                            1 	(obj:0.02006)
x#237#25                                            1 	(obj:0.00935)
x#238#48                                            1 	(obj:0.01071)
x#239#34                                            1 	(obj:0.02329)
x#240#14                                            1 	(obj:0.00765)
x#241#34                                            1 	(obj:0.01836)
x#242#2                                             1 	(obj:0.01003)
x#243#13                                            1 	(obj:0.02618)
x#244#35                                            1 	(obj:0.02074)
x#245#38                                            1 	(obj:0.00629)
x#246#17                                            1 	(obj:0.017)
x#247#25                                            1 	(obj:0.01173)
x#248#14                                            1 	(obj:0.01003)
x#249#39                                            1 	(obj:0.01411)
x#250#10                                            1 	(obj:0.00476)
x#251#7                                             1 	(obj:0.00578)
x#252#22                                            1 	(obj:0.01071)
x#253#7                                             1 	(obj:0.00714)
x#254#18                                            1 	(obj:0.0136)
x#255#34                                            1 	(obj:0.01377)
x#256#32                                            1 	(obj:0.04046)
x#257#7                                             1 	(obj:0.01275)
x#258#21                                            1 	(obj:0.01462)
x#259#34                                            1 	(obj:0.01785)
x#260#50                                            1 	(obj:0.00884)
x#261#42                                            1 	(obj:0.0221)
x#262#42                                            1 	(obj:0.00323)
x#263#35                                            1 	(obj:0.02074)
x#264#17                                            1 	(obj:0.0153)
x#265#18                                            1 	(obj:0.00323)
x#266#13                                            1 	(obj:0.0085)
x#267#43                                            1 	(obj:0.02057)
x#268#18                                            1 	(obj:0.00918)
x#269#20                                            1 	(obj:0.00323)
x#270#42                                            1 	(obj:0.00697)
x#271#52                                            1 	(obj:0.01513)
x#272#27                                            1 	(obj:0.01054)
x#273#26                                            1 	(obj:0.0102)
x#274#25                                            1 	(obj:0.02465)
x#275#13                                            1 	(obj:0.01938)
x#276#25                                            1 	(obj:0.01343)
x#277#7                                             1 	(obj:0.01802)
x#278#43                                            1 	(obj:0.0017)
x#279#38                                            1 	(obj:0.01632)
x#280#5                                             1 	(obj:0.01377)
x#281#22                                            1 	(obj:0.01377)
x#282#32                                            1 	(obj:0.03791)
x#283#35                                            1 	(obj:0.00561)
x#284#41                                            1 	(obj:0.0085)
x#285#40                                            1 	(obj:0.01938)
x#286#48                                            1 	(obj:0.00782)
x#287#25                                            1 	(obj:0.02074)
x#288#42                                            1 	(obj:0.02431)
x#289#34                                            1 	(obj:0.01088)
x#290#13                                            1 	(obj:0.02482)
x#291#9                                             1 	(obj:0.02261)
x#292#25                                            1 	(obj:0.01649)
x#293#18                                            1 	(obj:0.01105)
x#294#32                                            1 	(obj:0.00901)
x#295#33                                            1 	(obj:0.03927)
x#296#26                                            1 	(obj:0.01717)
x#297#21                                            1 	(obj:0.04318)
x#298#34                                            1 	(obj:0.0153)
x#299#38                                            1 	(obj:0.01717)
x#300#5                                             1 	(obj:0.01972)
